% Instancia problemática tipo: RESTRICCIONES_CONFLICTIVAS
% Razón: Demandas requieren capacidades conflictivas
% Demanda total: 5046.41
% Suministro total: 5298.74
% Factor holgura: 1.05

nP = 2;
nT = 3;
nC1 = 4;
nC2 = 6;
nA = 42;
nD = 3;

arc_from = [1, 1, 1, 2, 2, 2, 3, 3, 3, 3, 4, 4, 4, 4, 5, 5, 5, 5, 6, 6, 6, 6, 6, 6, 7, 7, 7, 7, 7, 7, 8, 8, 8, 8, 8, 8, 9, 9, 9, 9, 9, 9];
arc_to = [3, 4, 5, 3, 4, 5, 6, 7, 8, 9, 6, 7, 8, 9, 6, 7, 8, 9, 10, 11, 12, 13, 14, 15, 10, 11, 12, 13, 14, 15, 10, 11, 12, 13, 14, 15, 10, 11, 12, 13, 14, 15];

supply = [2649.37, 2649.37, 0, 0, 0, 0, 0, 0, 0, 0, 0, 0, 0, 0, 0];
demand = [0, 0, 0, 0, 0, 1089.67, 1136.20, 1167.82, 1192.29, 76.71, 95.35, 79.59, 83.15, 54.20, 71.43];

max_capacity = [795, 1414, 3181];

install_cost = array2d(1..nA, 1..nD, [
  20, 24, 32,
  50, 62, 78,
  20, 24, 32,
  50, 62, 78,
  20, 24, 32,
  50, 62, 78,
  20, 24, 32,
  50, 62, 78,
  20, 24, 32,
  50, 62, 78,
  20, 24, 32,
  50, 62, 78,
  20, 24, 32,
  50, 62, 78,
  20, 24, 32,
  50, 62, 78,
  20, 24, 32,
  50, 62, 78,
  20, 24, 32,
  50, 62, 78,
  20, 24, 32,
  50, 62, 78,
  20, 24, 32,
  50, 62, 78,
  20, 24, 32,
  50, 62, 78,
  20, 24, 32,
  50, 62, 78,
  20, 24, 32,
  50, 62, 78,
  20, 24, 32,
  50, 62, 78,
  20, 24, 32,
  50, 62, 78,
  20, 24, 32,
  50, 62, 78,
  20, 24, 32,
  50, 62, 78,
  20, 24, 32,
  50, 62, 78,
  20, 24, 32,
  50, 62, 78
]);

trans_cost = [4.47, 1.73, 2.04, 2.31, 2.82, 2.35, 4.52, 2.11, 4.80, 2.69, 4.34, 2.88, 4, 1.21, 4.81, 1.90, 1.27, 4.83, 1.16, 1.12, 1.99, 4.36, 3.49, 1.95, 2.89, 1.46, 4.79, 2.86, 2.02, 2.48, 3.42, 4.85, 3.87, 4.11, 1.66, 2.24, 3.31, 4.72, 3.30, 4.63, 2.50, 4.77];
